<<<<<<< HEAD
<<<<<<< HEAD
NAME : single.2742.tour
COMMENT : Length = 2742
COMMENT : Found by LKH [Keld Helsgaun] Fri Apr 29 14:58:14 2022
TYPE : TOUR
DIMENSION : 17
TOUR_SECTION
1
17
16
15
14
13
12
11
8
9
10
=======
NAME : single.2799.tour
COMMENT : Length = 2799
COMMENT : Found by LKH [Keld Helsgaun] Thu May  5 16:46:00 2022
=======
NAME : single.50639.tour
COMMENT : Length = 50639
COMMENT : Found by LKH [Keld Helsgaun] Sun May 15 21:37:52 2022
>>>>>>> dev/Mads
TYPE : TOUR
DIMENSION : 5
TOUR_SECTION
1
<<<<<<< HEAD
19
16
17
18
15
14
11
10
13
>>>>>>> dev/Mads
4
=======
5
>>>>>>> dev/Mads
3
4
2
<<<<<<< HEAD
5
<<<<<<< HEAD
7
6
=======
12
7
6
9
8
>>>>>>> dev/Mads
=======
>>>>>>> dev/Mads
-1
EOF
